
===== New CPLEX run =====
Instance: /home/yorig/tuner/mpils-tests/instances/miplib/easy/supportcase33.mps
Config: /scratch/yorig/mpils-results-grid-seconds-5-watchdog-mip-start/easy/8proc/seed-4/10_supportcase33_seed-4_20260504_032501/expansion/config_param_CPXPARAM_Simplex_PGradient_4_iter_3.prm
========================

Selected objective sense:  MINIMIZE
Selected objective  name:  obj
Selected RHS        name:  rhs
Selected bound      name:  bnd
Wall watchdog: enabled factor=1 grace=1 limit=6 seconds
Version identifier: 22.1.2.0 | 2024-11-26 | 0edbb82fd
CPXPARAM_Simplex_PGradient                       4
CPXPARAM_Threads                                 8
CPXPARAM_Parallel                                1
CPXPARAM_MIP_Cuts_Cliques                        3
CPXPARAM_MIP_Cuts_Covers                         2
CPXPARAM_MIP_Cuts_Implied                        -1
CPXPARAM_MIP_Cuts_GUBCovers                      -1
CPXPARAM_MIP_Limits_GomoryCand                   800
CPXPARAM_MIP_Cuts_Gomory                         2
CPXPARAM_MIP_Cuts_PathCut                        -1
CPXPARAM_MIP_Cuts_MIRCut                         2
CPXPARAM_MIP_Cuts_Disjunctive                    3
CPXPARAM_Emphasis_MIP                            4
CPXPARAM_TimeLimit                               5
Found incumbent of value 0.000000 after 0.00 sec. (2.20 ticks)
Tried aggregator 2 times.
MIP Presolve eliminated 17556 rows and 13423 columns.
MIP Presolve modified 14568 coefficients.
Aggregator did 11 substitutions.
Reduced MIP has 2922 rows, 6763 columns, and 53605 nonzeros.
Reduced MIP has 6683 binaries, 80 generals, 0 SOSs, and 0 indicators.
Presolve time = 0.09 sec. (158.17 ticks)
Probing fixed 667 vars, tightened 0 bounds.
Probing changed sense of 39 constraints.
Probing time = 0.17 sec. (249.39 ticks)
Tried aggregator 2 times.
Detecting symmetries...
MIP Presolve eliminated 639 rows and 667 columns.
MIP Presolve modified 197 coefficients.
Aggregator did 7 substitutions.
Reduced MIP has 2276 rows, 6089 columns, and 46722 nonzeros.
Reduced MIP has 6009 binaries, 80 generals, 0 SOSs, and 0 indicators.
Presolve time = 0.03 sec. (37.79 ticks)
Probing fixed 1 vars, tightened 0 bounds.
Probing time = 0.03 sec. (37.88 ticks)
Clique table members: 25145.
MIP emphasis: hidden feasible solutions.
MIP search method: dynamic search.
Parallel mode: deterministic, using up to 8 threads.
Root relaxation solution time = 0.06 sec. (117.15 ticks)

        Nodes                                         Cuts/
   Node  Left     Objective  IInf  Best Integer    Best Bound    ItCnt     Gap

*     0+    0                            0.0000    -1075.0000              --- 
      0     0     -462.8425   108        0.0000     -462.8425     1467     --- 
*     0+    0                         -155.0000     -462.8425           198.61%
      0     0     -442.5000   138     -155.0000     Cuts: 173     2013  185.48%
      0     0     -440.0000   115     -155.0000     Cuts: 171     2355  183.87%
*     0+    0                         -215.0000     -440.0000           104.65%
      0     0     -440.0000    87     -215.0000      Cuts: 39     2611  104.65%
*     0+    0                         -235.0000     -440.0000            87.23%
      0     0  -1.00000e+75     0     -235.0000     -440.0000     2611   87.23%
      0     0     -425.0000   104     -235.0000      Cuts: 33     2853   80.85%
*     0+    0                         -260.0000     -425.0000            63.46%
      0     0     -425.0000   107     -260.0000     Cuts: 126     3250   63.46%
Detecting symmetries...
      0     0     -425.0000    92     -260.0000      Cuts: 61     3513   63.46%
*     0+    0                         -265.0000     -425.0000            60.38%
*     0+    0                         -300.0000     -425.0000            41.67%
      0     0  -1.00000e+75     0     -300.0000     -425.0000     3513   41.67%
      0     0     -425.0000   102     -300.0000     Cuts: 104     3910   41.67%
*     0+    0                         -305.0000     -425.0000            39.34%
      0     0  -1.00000e+75     0     -305.0000     -425.0000     3910   39.34%
Detecting symmetries...
      0     2     -425.0000    84     -305.0000     -425.0000     3910   39.34%
Elapsed time = 2.24 sec. (3127.46 ticks, tree = 0.02 MB, solutions = 7)
*    52+    4                         -310.0000     -421.5251            35.98%
    149    72     -375.0000    67     -310.0000     -421.5251     9408   35.98%
    263   131     -375.0000    57     -310.0000     -421.5251    20295   35.98%
    399   197     -373.4434    83     -310.0000     -421.5251    29331   35.98%
    446   260    infeasible           -310.0000     -421.5251    35029   35.98%
    616   311    infeasible           -310.0000     -421.5251    41645   35.98%
    859   407     -345.0000    53     -310.0000     -405.0000    47717   30.65%
   1085   547     -395.0000    62     -310.0000     -405.0000    60350   30.65%
   1335   650     -372.5000    91     -310.0000     -405.0000    74940   30.65%
   1507   740     -405.0000    65     -310.0000     -405.0000    82869   30.65%
*  2045  1026      integral     0     -320.0000     -405.0000   107420   26.56%
Elapsed time = 3.99 sec. (5883.93 ticks, tree = 13.44 MB, solutions = 10)
   2570  1136     -325.0000    33     -320.0000     -405.0000   132602   26.56%

Clique cuts applied:  6
Cover cuts applied:  75
Mixed integer rounding cuts applied:  322
Zero-half cuts applied:  11
Gomory fractional cuts applied:  14
Disjunctive cuts applied:  2
Cone linearizations applied:  0

Root node processing (before b&c):
  Real time             =    2.20 sec. (3097.46 ticks)
Parallel b&c, 8 threads:
  Real time             =    2.81 sec. (4382.11 ticks)
  Sync time (average)   =    0.59 sec.
  Wait time (average)   =    0.00 sec.
                          ------------
Total (root+branch&cut) =    5.01 sec. (7479.57 ticks)
Gap: 26.06%
Upper bound: -320
Lower bound: -403.387
Termination status: Normal
End of CPLEX run. Time: 5.01396 seconds

===== New CPLEX run =====
Instance: /home/yorig/tuner/mpils-tests/instances/miplib/easy/supportcase33.mps
Config: /scratch/yorig/mpils-results-grid-seconds-5-watchdog-mip-start/easy/8proc/seed-4/10_supportcase33_seed-4_20260504_032501/expansion/config_param_CPXPARAM_Advance_0_iter_3.prm
========================

Selected objective sense:  MINIMIZE
Selected objective  name:  obj
Selected RHS        name:  rhs
Selected bound      name:  bnd
Wall watchdog: enabled factor=1 grace=1 limit=6 seconds
Version identifier: 22.1.2.0 | 2024-11-26 | 0edbb82fd
CPXPARAM_Advance                                 0
CPXPARAM_Threads                                 8
CPXPARAM_Parallel                                1
CPXPARAM_MIP_Cuts_Cliques                        3
CPXPARAM_MIP_Cuts_Covers                         2
CPXPARAM_MIP_Cuts_Implied                        -1
CPXPARAM_MIP_Cuts_GUBCovers                      -1
CPXPARAM_MIP_Limits_GomoryCand                   800
CPXPARAM_MIP_Cuts_Gomory                         2
CPXPARAM_MIP_Cuts_PathCut                        -1
CPXPARAM_MIP_Cuts_MIRCut                         2
CPXPARAM_MIP_Cuts_Disjunctive                    3
CPXPARAM_Emphasis_MIP                            4
CPXPARAM_TimeLimit                               5
Found incumbent of value 0.000000 after 0.00 sec. (2.20 ticks)
Tried aggregator 2 times.
MIP Presolve eliminated 17556 rows and 13423 columns.
MIP Presolve modified 14568 coefficients.
Aggregator did 11 substitutions.
Reduced MIP has 2922 rows, 6763 columns, and 53605 nonzeros.
Reduced MIP has 6683 binaries, 80 generals, 0 SOSs, and 0 indicators.
Presolve time = 0.09 sec. (158.17 ticks)
Probing fixed 667 vars, tightened 0 bounds.
Probing changed sense of 39 constraints.
Probing time = 0.17 sec. (249.39 ticks)
Tried aggregator 2 times.
Detecting symmetries...
MIP Presolve eliminated 639 rows and 667 columns.
MIP Presolve modified 197 coefficients.
Aggregator did 7 substitutions.
Reduced MIP has 2276 rows, 6089 columns, and 46722 nonzeros.
Reduced MIP has 6009 binaries, 80 generals, 0 SOSs, and 0 indicators.
Presolve time = 0.03 sec. (37.79 ticks)
Probing fixed 1 vars, tightened 0 bounds.
Probing time = 0.03 sec. (37.88 ticks)
Clique table members: 25145.
MIP emphasis: hidden feasible solutions.
MIP search method: dynamic search.
Parallel mode: deterministic, using up to 8 threads.
Root relaxation solution time = 0.06 sec. (117.15 ticks)

        Nodes                                         Cuts/
   Node  Left     Objective  IInf  Best Integer    Best Bound    ItCnt     Gap

*     0+    0                            0.0000    -1075.0000              --- 
      0     0     -462.8425   108        0.0000     -462.8425     1467     --- 
*     0+    0                         -155.0000     -462.8425           198.61%
      0     0     -442.5000   138     -155.0000     Cuts: 173     2013  185.48%
      0     0     -440.0000   115     -155.0000     Cuts: 171     2355  183.87%
*     0+    0                         -215.0000     -440.0000           104.65%
      0     0     -440.0000    87     -215.0000      Cuts: 39     2611  104.65%
*     0+    0                         -235.0000     -440.0000            87.23%
      0     0  -1.00000e+75     0     -235.0000     -440.0000     2611   87.23%
      0     0     -425.0000   104     -235.0000      Cuts: 33     2853   80.85%
*     0+    0                         -260.0000     -425.0000            63.46%
      0     0     -425.0000   107     -260.0000     Cuts: 126     3250   63.46%
Detecting symmetries...
      0     0     -425.0000    79     -260.0000      Cuts: 61     3352   63.46%
*     0+    0                         -285.0000     -425.0000            49.12%
      0     0  -1.00000e+75     0     -285.0000     -425.0000     3352   49.12%
      0     0     -425.0000    80     -285.0000      Cuts: 86     3767   49.12%
Detecting symmetries...
      0     2     -424.4677    98     -285.0000     -425.0000     3767   49.12%
Elapsed time = 2.55 sec. (3597.82 ticks, tree = 0.02 MB, solutions = 5)
*    39+    7                         -310.0000     -420.0000            35.48%
    122    66     -380.6492    68     -310.0000     -418.3755     9881   34.96%
    266   152     -332.4038    98     -310.0000     -418.3755    20456   34.96%
*   374   218      integral     0     -315.0000     -418.3755    32132   32.82%
    386   219     -325.0000    35     -315.0000     -417.3626    30186   32.50%
    449   220     -380.0000    39     -315.0000     -417.3626    35207   32.50%
    701   378    infeasible           -315.0000     -405.0000    45758   28.57%
*   715   361      integral     0     -340.0000     -405.0000    44891   19.12%
    971   386     -349.9774    65     -340.0000     -405.0000    54860   19.12%
   1206   541     -365.0000    49     -340.0000     -405.0000    65888   19.12%
   1351   612     -385.5448    70     -340.0000     -405.0000    72065   19.12%
   2358   843    infeasible           -340.0000     -400.8844   110217   17.91%
Elapsed time = 4.40 sec. (6497.45 ticks, tree = 12.26 MB, solutions = 9)

Clique cuts applied:  5
Cover cuts applied:  66
Mixed integer rounding cuts applied:  279
Zero-half cuts applied:  9
Gomory fractional cuts applied:  15
Disjunctive cuts applied:  2
Cone linearizations applied:  0

Root node processing (before b&c):
  Real time             =    2.51 sec. (3569.77 ticks)
Parallel b&c, 8 threads:
  Real time             =    2.49 sec. (3879.42 ticks)
  Sync time (average)   =    0.50 sec.
  Wait time (average)   =    0.00 sec.
                          ------------
Total (root+branch&cut) =    5.01 sec. (7449.20 ticks)
Gap: 10.08%
Upper bound: -340
Lower bound: -374.277
Termination status: Normal
End of CPLEX run. Time: 5.00931 seconds

===== New CPLEX run =====
Instance: /home/yorig/tuner/mpils-tests/instances/miplib/easy/supportcase33.mps
Config: /scratch/yorig/mpils-results-grid-seconds-5-watchdog-mip-start/easy/8proc/seed-4/10_supportcase33_seed-4_20260504_032501/expansion/config_param_CPXPARAM_Advance_2_iter_3.prm
========================

Selected objective sense:  MINIMIZE
Selected objective  name:  obj
Selected RHS        name:  rhs
Selected bound      name:  bnd
Wall watchdog: enabled factor=1 grace=1 limit=6 seconds
Version identifier: 22.1.2.0 | 2024-11-26 | 0edbb82fd
CPXPARAM_Advance                                 2
CPXPARAM_Threads                                 8
CPXPARAM_Parallel                                1
CPXPARAM_MIP_Cuts_Cliques                        3
CPXPARAM_MIP_Cuts_Covers                         2
CPXPARAM_MIP_Cuts_Implied                        -1
CPXPARAM_MIP_Cuts_GUBCovers                      -1
CPXPARAM_MIP_Limits_GomoryCand                   800
CPXPARAM_MIP_Cuts_Gomory                         2
CPXPARAM_MIP_Cuts_PathCut                        -1
CPXPARAM_MIP_Cuts_MIRCut                         2
CPXPARAM_MIP_Cuts_Disjunctive                    3
CPXPARAM_Emphasis_MIP                            4
CPXPARAM_TimeLimit                               5
Found incumbent of value 0.000000 after 0.00 sec. (2.20 ticks)
Tried aggregator 2 times.
MIP Presolve eliminated 17556 rows and 13423 columns.
MIP Presolve modified 14568 coefficients.
Aggregator did 11 substitutions.
Reduced MIP has 2922 rows, 6763 columns, and 53605 nonzeros.
Reduced MIP has 6683 binaries, 80 generals, 0 SOSs, and 0 indicators.
Presolve time = 0.09 sec. (158.17 ticks)
Probing fixed 667 vars, tightened 0 bounds.
Probing changed sense of 39 constraints.
Probing time = 0.17 sec. (249.39 ticks)
Tried aggregator 2 times.
Detecting symmetries...
MIP Presolve eliminated 639 rows and 667 columns.
MIP Presolve modified 197 coefficients.
Aggregator did 7 substitutions.
Reduced MIP has 2276 rows, 6089 columns, and 46722 nonzeros.
Reduced MIP has 6009 binaries, 80 generals, 0 SOSs, and 0 indicators.
Presolve time = 0.03 sec. (37.79 ticks)
Probing fixed 1 vars, tightened 0 bounds.
Probing time = 0.03 sec. (37.88 ticks)
Clique table members: 25145.
MIP emphasis: hidden feasible solutions.
MIP search method: dynamic search.
Parallel mode: deterministic, using up to 8 threads.
Root relaxation solution time = 0.06 sec. (117.15 ticks)

        Nodes                                         Cuts/
   Node  Left     Objective  IInf  Best Integer    Best Bound    ItCnt     Gap

*     0+    0                            0.0000    -1075.0000              --- 
      0     0     -462.8425   108        0.0000     -462.8425     1467     --- 
*     0+    0                         -155.0000     -462.8425           198.61%
      0     0     -442.5000   138     -155.0000     Cuts: 173     2013  185.48%
      0     0     -440.0000   115     -155.0000     Cuts: 171     2355  183.87%
*     0+    0                         -215.0000     -440.0000           104.65%
      0     0     -440.0000    87     -215.0000      Cuts: 39     2611  104.65%
*     0+    0                         -235.0000     -440.0000            87.23%
      0     0  -1.00000e+75     0     -235.0000     -440.0000     2611   87.23%
      0     0     -425.0000   104     -235.0000      Cuts: 33     2853   80.85%
*     0+    0                         -260.0000     -425.0000            63.46%
      0     0     -425.0000   107     -260.0000     Cuts: 126     3250   63.46%
Detecting symmetries...
      0     0     -425.0000    79     -260.0000      Cuts: 61     3352   63.46%
*     0+    0                         -285.0000     -425.0000            49.12%
      0     0  -1.00000e+75     0     -285.0000     -425.0000     3352   49.12%
      0     0     -425.0000    80     -285.0000      Cuts: 86     3767   49.12%
Detecting symmetries...
      0     2     -424.4677    98     -285.0000     -425.0000     3767   49.12%
Elapsed time = 2.51 sec. (3597.82 ticks, tree = 0.02 MB, solutions = 5)
*    39+    7                         -310.0000     -420.0000            35.48%
    122    66     -380.6492    68     -310.0000     -418.3755     9881   34.96%
    266   152     -332.4038    98     -310.0000     -418.3755    20456   34.96%
*   374   218      integral     0     -315.0000     -418.3755    32132   32.82%
    386   219     -325.0000    35     -315.0000     -417.3626    30186   32.50%
    449   220     -380.0000    39     -315.0000     -417.3626    35207   32.50%
    701   378    infeasible           -315.0000     -405.0000    45758   28.57%
*   715   361      integral     0     -340.0000     -405.0000    44891   19.12%
    971   386     -349.9774    65     -340.0000     -405.0000    54860   19.12%
   1206   541     -365.0000    49     -340.0000     -405.0000    65888   19.12%
   1351   612     -385.5448    70     -340.0000     -405.0000    72065   19.12%
   2358   843    infeasible           -340.0000     -400.8844   110217   17.91%
Elapsed time = 4.37 sec. (6497.45 ticks, tree = 12.26 MB, solutions = 9)
   3400   982        cutoff           -340.0000     -379.2624   144206   11.55%

Clique cuts applied:  5
Cover cuts applied:  67
Mixed integer rounding cuts applied:  283
Zero-half cuts applied:  9
Gomory fractional cuts applied:  15
Disjunctive cuts applied:  2
Cone linearizations applied:  0

Root node processing (before b&c):
  Real time             =    2.48 sec. (3569.77 ticks)
Parallel b&c, 8 threads:
  Real time             =    2.53 sec. (3909.88 ticks)
  Sync time (average)   =    0.51 sec.
  Wait time (average)   =    0.00 sec.
                          ------------
Total (root+branch&cut) =    5.01 sec. (7479.65 ticks)
Gap: 9.45%
Upper bound: -340
Lower bound: -372.143
Termination status: Normal
End of CPLEX run. Time: 5.01044 seconds

===== New CPLEX run =====
Instance: /home/yorig/tuner/mpils-tests/instances/miplib/easy/supportcase33.mps
Config: /scratch/yorig/mpils-results-grid-seconds-5-watchdog-mip-start/easy/8proc/seed-4/10_supportcase33_seed-4_20260504_032501/expansion/config_param_CPXPARAM_MIP_Limits_AggForCut_0_iter_3.prm
========================

Selected objective sense:  MINIMIZE
Selected objective  name:  obj
Selected RHS        name:  rhs
Selected bound      name:  bnd
Wall watchdog: enabled factor=1 grace=1 limit=6 seconds
Version identifier: 22.1.2.0 | 2024-11-26 | 0edbb82fd
CPXPARAM_Threads                                 8
CPXPARAM_Parallel                                1
CPXPARAM_MIP_Cuts_Cliques                        3
CPXPARAM_MIP_Cuts_Covers                         2
CPXPARAM_MIP_Cuts_Implied                        -1
CPXPARAM_MIP_Cuts_GUBCovers                      -1
CPXPARAM_MIP_Limits_GomoryCand                   800
CPXPARAM_MIP_Cuts_Gomory                         2
CPXPARAM_MIP_Cuts_PathCut                        -1
CPXPARAM_MIP_Cuts_MIRCut                         2
CPXPARAM_MIP_Cuts_Disjunctive                    3
CPXPARAM_MIP_Limits_AggForCut                    0
CPXPARAM_Emphasis_MIP                            4
CPXPARAM_TimeLimit                               5
Found incumbent of value 0.000000 after 0.00 sec. (2.20 ticks)
Tried aggregator 2 times.
MIP Presolve eliminated 17556 rows and 13423 columns.
MIP Presolve modified 14568 coefficients.
Aggregator did 11 substitutions.
Reduced MIP has 2922 rows, 6763 columns, and 53605 nonzeros.
Reduced MIP has 6683 binaries, 80 generals, 0 SOSs, and 0 indicators.
Presolve time = 0.09 sec. (158.17 ticks)
Probing fixed 667 vars, tightened 0 bounds.
Probing changed sense of 39 constraints.
Probing time = 0.17 sec. (249.39 ticks)
Tried aggregator 2 times.
Detecting symmetries...
MIP Presolve eliminated 639 rows and 667 columns.
MIP Presolve modified 197 coefficients.
Aggregator did 7 substitutions.
Reduced MIP has 2276 rows, 6089 columns, and 46722 nonzeros.
Reduced MIP has 6009 binaries, 80 generals, 0 SOSs, and 0 indicators.
Presolve time = 0.03 sec. (37.79 ticks)
Probing fixed 1 vars, tightened 0 bounds.
Probing time = 0.03 sec. (37.88 ticks)
Clique table members: 25145.
MIP emphasis: hidden feasible solutions.
MIP search method: dynamic search.
Parallel mode: deterministic, using up to 8 threads.
Root relaxation solution time = 0.06 sec. (117.15 ticks)

        Nodes                                         Cuts/
   Node  Left     Objective  IInf  Best Integer    Best Bound    ItCnt     Gap

*     0+    0                            0.0000    -1075.0000              --- 
      0     0     -462.8425   108        0.0000     -462.8425     1467     --- 
*     0+    0                         -155.0000     -462.8425           198.61%
      0     0     -442.5000   136     -155.0000      Cuts: 80     1953  185.48%
      0     0     -442.5000   144     -155.0000      Cuts: 43     2195  185.48%
*     0+    0                         -215.0000     -442.5000           105.81%
      0     0     -440.0000    89     -215.0000      Cuts: 15     2563  104.65%
*     0+    0                         -275.0000     -440.0000            60.00%
      0     0  -1.00000e+75     0     -275.0000     -440.0000     2563   60.00%
      0     0     -439.6713   127     -275.0000      Cuts: 48     2858   59.88%
      0     0     -431.4863    87     -275.0000      Cuts: 32     3069   56.90%
Detecting symmetries...
      0     0     -431.3751   104     -275.0000      Cuts: 19     3213   56.86%
      0     0     -430.3697    86     -275.0000      Cuts: 26     3338   56.50%
      0     0     -430.0196    98     -275.0000      Cuts: 36     3586   56.37%
      0     0     -429.3926   105     -275.0000      Cuts: 28     3809   56.14%
*     0+    0                         -290.0000     -429.3926            48.07%
      0     0  -1.00000e+75     0     -290.0000     -429.3926     3809   48.07%
      0     0     -429.3926   122     -290.0000      Cuts: 25     3876   48.07%
*     0+    0                         -295.0000     -429.3926            45.56%
      0     0  -1.00000e+75     0     -295.0000     -429.3926     3876   45.56%
Detecting symmetries...
      0     2     -429.3926   122     -295.0000     -429.3926     3876   45.56%
Elapsed time = 2.13 sec. (2911.33 ticks, tree = 0.02 MB, solutions = 5)
    185    92     -384.0142    63     -295.0000     -423.0339     8766   43.40%
    539   286     -352.7077    81     -295.0000     -423.0339    16416   43.40%
*   739   420      integral     0     -320.0000     -423.0339    23079   32.20%
    866   440     -377.0138    65     -320.0000     -423.0339    27923   32.20%
    943   531     -351.6485    84     -320.0000     -423.0339    35177   32.20%
   1170   591    infeasible           -320.0000     -414.6667    41684   29.58%
   1524   749     -404.8577   106     -320.0000     -405.0000    49494   26.56%
   1904   989     -355.0000    43     -320.0000     -405.0000    61494   26.56%
   2309  1115     -394.3119    44     -320.0000     -405.0000    69562   26.56%
   2720  1389     -391.6667    60     -320.0000     -405.0000    82200   26.56%

Performing restart 1

Repeating presolve.
Tried aggregator 1 time.
MIP Presolve eliminated 36 rows and 19 columns.
MIP Presolve modified 24844 coefficients.
Reduced MIP has 2238 rows, 6070 columns, and 33734 nonzeros.
Reduced MIP has 5990 binaries, 80 generals, 0 SOSs, and 0 indicators.
Presolve time = 0.02 sec. (38.68 ticks)
Tried aggregator 1 time.
MIP Presolve eliminated 73 rows and 217 columns.
MIP Presolve modified 2218 coefficients.
Reduced MIP has 2165 rows, 5853 columns, and 31071 nonzeros.
Reduced MIP has 5773 binaries, 80 generals, 0 SOSs, and 0 indicators.
Presolve time = 0.02 sec. (25.91 ticks)
Tried aggregator 2 times.
MIP Presolve eliminated 17 rows and 68 columns.
MIP Presolve modified 52 coefficients.
Aggregator did 1 substitutions.
Reduced MIP has 2147 rows, 5784 columns, and 30810 nonzeros.
Reduced MIP has 5704 binaries, 80 generals, 0 SOSs, and 0 indicators.
Presolve time = 0.02 sec. (25.62 ticks)
Represolve time = 0.83 sec. (825.09 ticks)

Clique cuts applied:  2
Cover cuts applied:  34
Mixed integer rounding cuts applied:  51
Zero-half cuts applied:  21
Lift and project cuts applied:  1
Gomory fractional cuts applied:  16
Disjunctive cuts applied:  1
Cone linearizations applied:  0

Root node processing (before b&c):
  Real time             =    2.08 sec. (2883.20 ticks)
Parallel b&c, 8 threads:
  Real time             =    2.92 sec. (4072.92 ticks)
  Sync time (average)   =    0.37 sec.
  Wait time (average)   =    0.00 sec.
                          ------------
Total (root+branch&cut) =    5.00 sec. (6956.12 ticks)
Gap: 26.56%
Upper bound: -320
Lower bound: -405
Termination status: Normal
End of CPLEX run. Time: 5.00717 seconds
